NOMBRE : TEST RESCOL
COMENTARIO : Ejemplo de formato
VERTICES : 25
ARISTAS_REQ : 60
ARISTAS_NOREQ : 0
RESTRICCIONES : 3
NODOS_INICIALES : 3
NODOS_TERMINO : 0
LISTA_ARISTAS_REQ :
 1 2 4
 2 3 2
 3 4 10
 4 5 8
 2 1 4
 3 2 2
 4 3 10
 5 4 8  
 1 6 9
 7 2 3
 3 8 2
 9 4 1
 5 10 8
 6 7 2
 7 8 2
 8 9 7
 9 10 8
 7 6 2
 8 7 2
 9 8 7
 10 9 8
 6 11 9
 12 7 2
 8 13 3
 14 9 9
 10 15 8
 11 12 8
 12 13 4
 13 14 2
 14 15 8
 12 11 8
 13 12 4
 14 13 2
 15 14 8
 11 16 4
 17 12 3
 13 18 8
 19 14 9
 15 20 3
 16 17 4
 17 18 8
 18 19 3
 19 20 2
 17 16 8
 18 17 4
 19 18 3
 20 19 2
 16 21 8
 22 17 4
 18 23 8
 24 19 9
 20 25 1
 21 22 8
 22 23 3
 23 24 11
 24 25 8
 22 21 8
 23 22 3
 24 23 11
 25 24 8
LISTA_ARISTAS_NOREQ :
CORDENADAS_NODOS :  
23 43
75 5
35 89
2 56
64 74
23 43
75 5
35 89
2 56
62 32
23 43
75 5
35 89
2 56
2 56
23 43
75 5
35 89
2 56
23 43
75 5
35 89
2 56
64 74
62 32
RESTRICCIONES :
1 3 5
4 5 3
1 3 2
NODOS_INICIALES:
6
3
5
NODOS_TERMINO: